1 0 1 0
2 0 2 0
3 0 1 8
0 0 2 5
0 1 0 6
5 0 1 13
1 1 2 8
2 1 3 5
4 0 2 13
5 1 3 16
1 2 4 13
2 2 5 9
3 1 0 13
2 3 0 18
3 2 2 22
5 2 5 19
3 3 3 27
4 1 1 22
4 2 4 25
0 2 1 25
0 3 3 31
2 4 1 31
1 3 5 28
5 3 0 28
3 4 4 30
4 3 5 38
1 4 0 38
5 4 4 38
0 4 5 42
4 4 0 48
3 5 5 45
1 5 3 48
2 5 4 42
0 5 4 49
4 5 3 52
5 5 2 42

